<instance format="XCSP3" type="CSP">
  <variables>
    <var id="x0"> 1 7 8 </var>
    <var id="x1"> 1 8 13 </var>
    <var id="x2"> 7 12 13 </var>
    <var id="x3"> 7 9 12 </var>
    <var id="x4"> 1 8 </var>
    <var id="x5"> 7 10 12 13 </var>
    <var id="x6"> 1 7..10 </var>
    <var id="x7"> 1 2 8 </var>
    <var id="x8"> 1 3 8 </var>
    <var id="x9"> 1 2 4 10 </var>
    <var id="x10"> 1 8 10 12 </var>
    <var id="x11"> 3 4 12 </var>
    <var id="x12"> 1 3 8 </var>
    <var id="x13"> 1 4 8 10 </var>
    <var id="x14"> 3 7 10 </var>
    <var id="x15"> 3 8 11 </var>
    <var id="x16"> 2 10 11 </var>
    <var id="x17"> 3 7 10 12 </var>
    <var id="x18"> 3 7 8 10 11 </var>
    <var id="x19"> 7 8 10 </var>
    <var id="x20"> 2 3 7 8 10 12 </var>
    <var id="x21"> 0 1 4 14 </var>
    <var id="x22"> 0 1 4 8 13 </var>
    <var id="x23"> 14 </var>
    <var id="x24"> 1 8 13 14 </var>
    <var id="x25"> 0 4 13 </var>
    <var id="x26"> 6 8 13 14 </var>
    <var id="x27"> 8 </var>
    <var id="x28"> 0 1 3 7 10 </var>
    <var id="x29"> 1 10 11 </var>
    <var id="x30"> 7 11 </var>
    <var id="x31"> 3 7 </var>
    <var id="x32"> 0 3 7 10 </var>
    <var id="x33"> 3 7 8 10 </var>
    <var id="x34"> 3 7 8 10 </var>
    <var id="x35"> 7 11 13 </var>
    <var id="x36"> 3 7 11 14 </var>
    <var id="x37"> 9..11 </var>
    <var id="x38"> 7 10 13 14 </var>
    <var id="x39"> 7 11 13 14 </var>
    <var id="x40"> 3 11 14 </var>
    <var id="x41"> 3 7 10 11 </var>
    <var id="x42"> 1 3 7 8 11 14 </var>
    <var id="x43"> 1 3 8 11 </var>
    <var id="x44"> 7 10 11 14 </var>
    <var id="x45"> 1 7 8 10 14 </var>
    <var id="x46"> 7 11 14 </var>
    <var id="x47"> 3 7 8 10 14 </var>
    <var id="x48"> 1 3 7 8 10 11 </var>
    <var id="x49"> 3 4 8 </var>
    <var id="x50"> 7 8 10 14 </var>
    <var id="x51"> 2 4 7 14 </var>
    <var id="x52"> 3 4 7 </var>
    <var id="x53"> 3 8 14 </var>
    <var as="x47" id="x54"/>
    <var id="x55"> 2 3 7 8 10 </var>
    <var id="x56"> 0 1 3 7 14 </var>
    <var id="x57"> 1 6 7 13 </var>
    <var id="x58"> 7 14 </var>
    <var id="x59"> 1 6 </var>
    <var id="x60"> 3 6 7 13 14 </var>
    <var id="x61"> 1 3 6 7 </var>
    <var id="x62"> 3 7 </var>
    <var id="x63"> 1 4 9 10 </var>
    <var id="x64"> 1 6 8 11 </var>
    <var id="x65"> 1 6 8 11 </var>
    <var id="x66"> 1 4 6 9..11 </var>
    <var id="x67"> 4 10 12 </var>
    <var id="x68"> 6 8 10 </var>
    <var id="x69"> 1 6 8 10 11 </var>
    <var id="x70"> 1 4 8..10 </var>
    <var id="x71"> 4 7 14 </var>
    <var id="x72"> 6..8 14 </var>
    <var id="x73"> 7 12 14 </var>
    <var id="x74"> 6 8 14 </var>
    <var id="x75"> 4 7 12 13 </var>
    <var id="x76"> 6..8 </var>
    <var id="x77"> 4 7 8 14 </var>
    <var id="x78"> 3 7 9 14 </var>
    <var id="x79"> 6 7 11 13 </var>
    <var id="x80"> 6 9 11 </var>
    <var id="x81"> 3 6 7 9 </var>
    <var id="x82"> 3 7 13 </var>
    <var as="x60" id="x83"/>
    <var id="x84"> 7 9 14 </var>
    <var id="x85"> 1 11 </var>
    <var id="x86"> 2 5 7 10 11 </var>
    <var id="x87"> 1 7 10 </var>
    <var id="x88"> 2 7 11 </var>
    <var id="x89"> 5..7 </var>
    <var id="x90"> 1 6 11 </var>
    <var id="x91"> 2 7 10 </var>
    <var id="x92"> 0 3 4 7 14 </var>
    <var id="x93"> 6 7 11 </var>
    <var id="x94"> 3 6 7 11 14 </var>
    <var id="x95"> 0 3 4 11 </var>
    <var id="x96"> 7 11 14 </var>
    <var id="x97"> 0 3 6 11 14 </var>
    <var id="x98"> 3 6 7 11 </var>
    <var id="x99"> 1 2 7 </var>
    <var id="x100"> 2 5 7 12 </var>
    <var id="x101"> 1 7 12 </var>
    <var id="x102"> 2 4 7 12 </var>
    <var id="x103"> 4 5 7 9 12 </var>
    <var id="x104"> 1 4 7 9 </var>
    <var id="x105"> 2 7 9 12 </var>
  </variables>
  <constraints>
    <group>
      <allDifferent> %... </allDifferent>
      <args> x0 x1 x2 x3 x4 x5 x6 </args>
      <args> x7 x8 x9 x10 x11 x12 x13 </args>
      <args> x14 x15 x16 x17 x18 x19 x20 </args>
      <args> x21 x22 x23 x24 x25 x26 x27 </args>
      <args> x28 x29 x30 x31 x32 x33 x34 </args>
      <args> x35 x36 x37 x38 x39 x40 x41 </args>
      <args> x42 x43 x44 x45 x46 x47 x48 </args>
      <args> x49 x50 x51 x52 x53 x54 x55 </args>
      <args> x56 x57 x58 x59 x60 x61 x62 </args>
      <args> x63 x64 x65 x66 x67 x68 x69 x70 </args>
      <args> x71 x72 x73 x74 x75 x76 x77 </args>
      <args> x78 x79 x80 x81 x82 x83 x84 </args>
      <args> x85 x86 x87 x88 x89 x90 x91 </args>
      <args> x92 x93 x94 x95 x96 x97 x98 </args>
      <args> x99 x100 x101 x102 x103 x104 x105 </args>
      <args> x14 x21 x28 x56 x63 x71 x78 x92 </args>
      <args> x7 x35 x57 x64 x79 x93 x99 </args>
      <args> x0 x8 x36 x42 x65 x72 x94 </args>
      <args> x1 x15 x22 x43 x49 x85 x95 </args>
      <args> x23 x44 x58 x73 x86 x96 x100 </args>
      <args> x9 x16 x29 x37 x59 x66 x80 </args>
      <args> x10 x24 x38 x45 x50 x87 x101 </args>
      <args> x2 x30 x39 x46 x51 x88 x102 </args>
      <args> x3 x11 x31 x52 x81 x89 x103 </args>
      <args> x4 x12 x40 x53 x74 x90 x97 </args>
      <args> x5 x17 x25 x32 x67 x75 x82 </args>
      <args> x26 x33 x47 x54 x60 x68 x83 </args>
      <args> x18 x41 x48 x61 x69 x76 x98 </args>
      <args> x6 x13 x19 x70 x77 x84 x104 </args>
      <args> x20 x27 x34 x55 x62 x91 x105 </args>
    </group>
  </constraints>
</instance>

